examples/pyomobook/pyomo-components-ch/set_declaration.dat
set A := 1 2 3 ;

set B := 2 4 6 ;

set C[1] := a b c;
set C[3] := d e f;

set D[1,4] := a b c;
set D[2,6] := d e f;

set E[2] := 21 22 23;

set F[1] := 11 12 13;
set F[3] := 31 32 33;

set L := (1,2) (2,4) (3,6) ;
